(set-logic SLIA)
(define-fun func0  ((A String) (B String) (C String) (D String) (E String) ) String (str.replace (str.replace C  D  E ) A  B ))
(define-fun func1  ((A String) (B String) (C String) (D String) ) String (str.replace A  B  (str.++ C  D )))
(define-fun func2  ((A String) (B String) (C String) ) String (str.++ A  (str.++ B  C )))
(define-fun func3  ((A String) (B String) (C String) (D String) ) String (str.++ A  (str.++ B  (str.++ C  D ))))
(define-fun func4  ((A String) (B Int) (C String) (D Int) ) String (str.substr A  (+ 1  (str.indexof A  C  D )) B ))
(define-fun func5  ((A String) (B Int) (C String) ) String (str.substr A  (+ 1  (str.indexof A  C  0 )) B ))
(define-fun func6  ((A String) (B Int) (C String) (D String) (E Int) ) String (str.substr A  (+ 1  (str.indexof C  D  E )) B ))
(define-fun func7  ((A String) (B Int) (C String) (D String) ) String (str.substr A  (+ 1  (str.indexof C  D  0 )) B ))
(define-fun func8  ((A String) (B Int) (C Int) ) String (str.substr A  (+ 1  C ) B ))
(define-fun func9  ((A String) (B Int) (C Int) (D String) (E Int) ) String (str.substr A  (+ C  (str.indexof A  D  E )) B ))
(define-fun func10  ((A String) (B Int) (C Int) (D String) ) String (str.substr A  (+ C  (str.indexof A  D  0 )) B ))
(define-fun func11  ((A String) (B Int) (C Int) (D String) (E String) (F Int) ) String (str.substr A  (+ C  (str.indexof D  E  F )) B ))
(define-fun func12  ((A String) (B Int) (C Int) (D String) (E String) ) String (str.substr A  (+ C  (str.indexof D  E  0 )) B ))
(define-fun func13  ((A String) (B Int) (C Int) (D Int) ) String (str.substr A  (+ C  D ) B ))
(define-fun func14  ((A String) (B Int) (C Int) ) String (str.substr A  (+ B  C ) 3 ))
(define-fun func15  ((A String) (B Int) (C Int) ) String (str.substr A  (+ B  C ) (str.len A )))
(define-fun func16  ((A String) (B Int) (C Int) (D Int) ) String (str.substr A  (- C  D ) B ))
(define-fun func17  ((A String) (B Int) ) String (str.substr A  0  B ))
(define-fun func18  ((A String) (B String) (C Int) ) String (str.substr A  0  (str.indexof A  B  C )))
(define-fun func19  ((A String) (B String) ) String (str.substr A  0  (str.indexof A  B  0 )))
(define-fun func20  ((A String) (B String) (C String) (D Int) ) String (str.substr A  0  (str.indexof B  C  D )))
(define-fun func21  ((A String) (B String) (C String) ) String (str.substr A  0  (str.indexof B  C  1 )))
(define-fun func22  ((A String) (B String) (C String) ) String (str.substr A  0  (str.indexof B  C  0 )))
(define-fun func23  ((A String) (B Int) (C Int) (D Int) ) String (str.substr A  B  (+ C  D )))
(define-fun func24  ((A String) (B Int) (C String) (D Int) ) String (str.substr A  B  (str.indexof A  C  D )))
(define-fun func25  ((A String) (B Int) (C String) ) String (str.substr A  B  (str.indexof A  C  1 )))
(define-fun func26  ((A String) (B Int) (C String) ) String (str.substr A  B  (str.indexof A  C  0 )))
(define-fun func27  ((A String) (B Int) (C String) (D String) (E Int) ) String (str.substr A  B  (str.indexof C  D  E )))
(define-fun func28  ((A String) (B Int) (C String) (D String) ) String (str.substr A  B  (str.indexof C  D  1 )))
(define-fun func29  ((A String) (B Int) (C String) (D String) ) String (str.substr A  B  (str.indexof C  D  0 )))
(define-fun func30  ((A String) (B Int) (C Int) (D Int) ) String (str.substr A  B  (- C  D )))
(define-fun func31  ((A String) (B Int) ) String (str.substr A  B  3 ))
(define-fun func32  ((A String) (B Int) ) String (str.substr A  B  (str.len A )))
(define-fun func33  ((A String) (B Int) (C Int) (D String) (E String) ) String (str.substr A  (+ C  (str.indexof D  E  1 )) B ))
(define-fun func34  ((A String) (B Int) (C Int) (D String) ) String (str.substr A  (+ B  C ) (str.len D )))
(define-fun func35  ((A String) (B Int) (C String) ) String (str.substr A  B  (str.len C )))
(define-fun func36  ((A Int) ) Int (+ -1  A ))
(define-fun func37  ((A Int) ) Int (+ 1  A ))
(define-fun func38  ((A String) (B String) (C Int) ) Int (+ 1  (str.indexof A  B  C )))
(define-fun func39  ((A String) (B String) ) Int (+ 1  (str.indexof A  B  0 )))
(define-fun func40  ((A Int) (B Int) (C Int) ) Int (+ A  (+ B  C )))
(define-fun func41  ((A Int) ) Int (+ A  -1 ))
(define-fun func42  ((A Int) (B String) (C String) (D Int) ) Int (+ A  (str.indexof B  C  D )))
(define-fun func43  ((A Int) (B String) (C String) ) Int (+ A  (str.indexof B  C  1 )))
(define-fun func44  ((A Int) (B String) (C String) ) Int (+ A  (str.indexof B  C  0 )))
(define-fun func45  ((A String) (B String) ) Int (str.indexof A  B  1 ))
(define-fun func46  ((A String) (B String) ) Int (str.indexof A  B  0 ))
(define-fun func47  ((A Int) (B String) ) Int (- (str.len B ) A ))
(define-fun func48  ((A String) ) Int (- (str.len A ) 3 ))
(define-fun func49  ((A Int) ) Int (- A  3 ))
(define-fun func50  ((A String) (B String) ) Bool (str.contains A  B ))
(synth-fun f ((name String)) String
( (Start String (ntString))
 (ntString String (
	name " " 
	(func1 ntString ntString ntString ntString)
	(func2 ntString ntString ntString)
	(func3 ntString ntString ntString ntString)
	(func4 ntString ntInt ntString ntInt)
	(func6 ntString ntInt ntString ntString ntInt)
	(func8 ntString ntInt ntInt)
	(func11 ntString ntInt ntInt ntString ntString ntInt)
	(func13 ntString ntInt ntInt ntInt)
	(func14 ntString ntInt ntInt)
	(func15 ntString ntInt ntInt)
	(func20 ntString ntString ntString ntInt)
	(func24 ntString ntInt ntString ntInt)
	(func26 ntString ntInt ntString)
	(func27 ntString ntInt ntString ntString ntInt)
	(func30 ntString ntInt ntInt ntInt)
	(func31 ntString ntInt)
	(func32 ntString ntInt)
	(func33 ntString ntInt ntInt ntString ntString)
	(func35 ntString ntInt ntString)
	(str.++ ntString ntString)
	(str.replace ntString ntString ntString)
	(str.at ntString ntInt)
	(int.to.str ntInt)
	(ite ntBool ntString ntString)
	(str.substr ntString ntInt ntInt)
))
 (ntInt Int (
	0 1 
	(func36 ntInt)
	(func37 ntInt)
	(func38 ntString ntString ntInt)
	(func40 ntInt ntInt ntInt)
	(func41 ntInt)
	(func45 ntString ntString)
	(func46 ntString ntString)
	(func47 ntInt ntString)
	(+ ntInt ntInt)
	(- ntInt ntInt)
	(str.len ntString)
	(str.to.int ntString)
	(ite ntBool ntInt ntInt)
	(str.indexof ntString ntString ntInt)
))
 (ntBool Bool (
	true false
	(= ntInt ntInt)
	(str.prefixof ntString ntString)
	(str.suffixof ntString ntString)
	(str.contains ntString ntString)
))
))
(constraint (= (f "Nancy FreeHafer") "FreeHafer"))
(constraint (= (f "Andrew Cencici") "Cencici"))
(constraint (= (f "Jan Kotas") "Kotas"))
(constraint (= (f "Mariya Sergienko") "Sergienko"))
(constraint (= (f "Launa Withers") "Withers"))
(constraint (= (f "Lakenya Edison") "Edison"))
(constraint (= (f "Brendan Hage") "Hage"))
(constraint (= (f "Bradford Lango") "Lango"))
(constraint (= (f "Rudolf Akiyama") "Akiyama"))
(constraint (= (f "Lara Constable") "Constable"))
(constraint (= (f "Madelaine Ghoston") "Ghoston"))
(constraint (= (f "Salley Hornak") "Hornak"))
(constraint (= (f "Micha Junkin") "Junkin"))
(constraint (= (f "Teddy Bobo") "Bobo"))
(constraint (= (f "Coralee Scalia") "Scalia"))
(constraint (= (f "Jeff Quashie") "Quashie"))
(constraint (= (f "Vena Babiarz") "Babiarz"))
(constraint (= (f "Karrie Lain") "Lain"))
(constraint (= (f "Tobias Dermody") "Dermody"))
(constraint (= (f "Celsa Hopkins") "Hopkins"))
(constraint (= (f "Kimberley Halpern") "Halpern"))
(constraint (= (f "Phillip Rowden") "Rowden"))
(constraint (= (f "Elias Neil") "Neil"))
(constraint (= (f "Lashanda Cortes") "Cortes"))
(constraint (= (f "Mackenzie Spell") "Spell"))
(constraint (= (f "Kathlyn Eccleston") "Eccleston"))
(constraint (= (f "Georgina Brescia") "Brescia"))
(constraint (= (f "Beata Miah") "Miah"))
(constraint (= (f "Desiree Seamons") "Seamons"))
(constraint (= (f "Jeanice Soderstrom") "Soderstrom"))
(constraint (= (f "Mariel Jurgens") "Jurgens"))
(constraint (= (f "Alida Bogle") "Bogle"))
(constraint (= (f "Jacqualine Olague") "Olague"))
(constraint (= (f "Joaquin Clasen") "Clasen"))
(constraint (= (f "Samuel Richert") "Richert"))
(constraint (= (f "Malissa Marcus") "Marcus"))
(constraint (= (f "Alaina Partida") "Partida"))
(constraint (= (f "Trinidad Mulloy") "Mulloy"))
(constraint (= (f "Carlene Garrard") "Garrard"))
(constraint (= (f "Melodi Chism") "Chism"))
(constraint (= (f "Bess Chilcott") "Chilcott"))
(constraint (= (f "Chong Aylward") "Aylward"))
(constraint (= (f "Jani Ramthun") "Ramthun"))
(constraint (= (f "Jacquiline Heintz") "Heintz"))
(constraint (= (f "Hayley Marquess") "Marquess"))
(constraint (= (f "Andria Spagnoli") "Spagnoli"))
(constraint (= (f "Irwin Covelli") "Covelli"))
(constraint (= (f "Gertude Montiel") "Montiel"))
(constraint (= (f "Stefany Reily") "Reily"))
(constraint (= (f "Rae Mcgaughey") "Mcgaughey"))
(constraint (= (f "Cruz Latimore") "Latimore"))
(constraint (= (f "Maryann Casler") "Casler"))
(constraint (= (f "Annalisa Gregori") "Gregori"))
(constraint (= (f "Jenee Pannell") "Pannell"))
(check-synth)
